p cnf 22 11
a 1 0
e 2 3 0
a 4 0
e 5 6 7 0
a 8 0
e 9 10 0
a 11 12 13 14 0
e 15 0
a 16 0
e 17 0
a 18 0
e 19 0
a 20 0
e 21 0
a 22 0
2 19 -22 12 0
-8 9 -14 19 -16 0
19 16 -2 11 -9 0
-13 -4 2 -15 -20 0
-15 16 -7 -22 0
-17 10 13 -9 -19 0
-3 -22 18 12 0
16 -12 -11 -19 0
9 -17 -14 18 20 0
-1 18 -8 13 0
-22 3 14 19 -18 0
